
******************************************************************************
This program contains Ipopt, a library for large-scale nonlinear optimization.
 Ipopt is released as open source code under the Eclipse Public License (EPL).
         For more information visit http://projects.coin-or.org/Ipopt
******************************************************************************

This is Ipopt version 3.12.6, running with linear solver ma57.

Number of nonzeros in equality constraint Jacobian...:        0
Number of nonzeros in inequality constraint Jacobian.:        9
Number of nonzeros in Lagrangian Hessian.............:        3

Total number of variables............................:        3
                     variables with only lower bounds:        0
                variables with lower and upper bounds:        0
                     variables with only upper bounds:        0
Total number of equality constraints.................:        0
Total number of inequality constraints...............:        3
        inequality constraints with only lower bounds:        3
   inequality constraints with lower and upper bounds:        0
        inequality constraints with only upper bounds:        0

iter    objective    inf_pr   inf_du lg(mu)  ||d||  lg(rg) alpha_du alpha_pr  ls
   0  2.0000000e+00 1.80e+01 1.01e+00  -1.0 0.00e+00    -  0.00e+00 0.00e+00   0
   1  6.4279373e-01 7.41e+00 4.49e-01  -1.0 1.36e+00    -  1.00e+00 1.00e+00h  1
   2  1.3451127e+00 9.35e-01 1.59e+00  -1.0 3.71e+00    -  1.00e+00 1.00e+00h  1
   3  1.5128633e+00 1.11e+00 1.47e-01  -1.0 4.72e+00    -  1.00e+00 8.00e-01h  1
   4  2.1389425e+00 0.00e+00 6.90e-02  -1.0 6.26e-01    -  1.00e+00 1.00e+00h  1
   5  1.9508697e+00 2.54e-03 5.62e-03  -2.5 3.33e-01    -  1.00e+00 9.81e-01h  1
   6  1.9519544e+00 5.30e-04 8.27e-04  -3.8 4.01e-02    -  1.00e+00 1.00e+00h  1
   7  1.9522201e+00 7.10e-06 9.31e-06  -5.7 4.95e-03    -  1.00e+00 1.00e+00h  1
   8  1.9522245e+00 0.00e+00 2.10e-09  -8.6 7.21e-05    -  1.00e+00 1.00e+00h  1

Number of Iterations....: 8

                                   (scaled)                 (unscaled)
Objective...............:   1.9522244871730936e+00    1.9522244871730936e+00
Dual infeasibility......:   2.1015156977798479e-09    2.1015156977798479e-09
Constraint violation....:   0.0000000000000000e+00    0.0000000000000000e+00
Complementarity.........:   5.9084207700328412e-09    5.9084207700328412e-09
Overall NLP error.......:   5.9084207700328412e-09    5.9084207700328412e-09


Number of objective function evaluations             = 9
Number of objective gradient evaluations             = 9
Number of equality constraint evaluations            = 0
Number of inequality constraint evaluations          = 9
Number of equality constraint Jacobian evaluations   = 0
Number of inequality constraint Jacobian evaluations = 9
Number of Lagrangian Hessian evaluations             = 8
Total CPU secs in IPOPT (w/o function evaluations)   =      0.000
Total CPU secs in NLP function evaluations           =      0.000

EXIT: Optimal Solution Found.

************************ CUTEst statistics ************************


 Package used            :  IPOPT
 Problem                 :  GIGOMEZ2  
 # variables             =               3
 # constraints           =               3
 # objective functions   =        0.1900000E+02
 # objective gradients   =        0.1000000E+02
 # objective Hessians    =        0.9000000E+01
 # Hessian-vector prdct  =        0.0000000E+00
 # constraints functions =        0.2000000E+02
 # constraints gradients =        0.1100000E+02
 # constraints Hessians  =        0.9000000E+01
 Exit code               =               0
 Final f                 =   0.1952224E+01
 Set up time             =            0.00 seconds
 Solve time              =            0.02 seconds


******************************************************************

System Time =       0.0030000000 s.
